
%FILE DATA:	Soccer Computational Problem for MiniZinc Models	%
%AUTHOR:	Jack Wall	%
%CONTACT:  	116397063@umail.ucc.ie			%
%LAST UPDATE:	03/03/2020, 12:12:28						%
%DESCRIPTION: 	49 games played with 23 games left				%


n=9; %number of teams

%Games to play
games=[|8,3|7,5|6,2|8,2|5,2|4,7|1,6|2,9|9,7|5,4|2,5|2,6|3,9|3,8|4,5|1,3|6,4|7,4|5,6|1,9|4,8|1,4|7,8|];

%Initial points
iPoints=[19,6,18,18,18,17,16,11,14];

%POSITION CONSTRAINTS
% [|teamID, operator, position|...]
% operators index:
%  1 for =  operator
%  2 for >  operator
%  3 for >= operator
%  4 for <  operator
%  5 for <= operator
positionConstraints=[|4,3,1|6,1,2|];